c Random Network
p min 10 20
n 1 1
n 10 -1
c Transformed from a max-flow problem.
a 	 1	4	0	33	0
a 	 4	6	0	13	0
a 	 2	4	0	48	0
a 	 8	2	0	1	0
a 	 4	1	0	27	0
a 	 2	6	0	20	0
a 	 5	2	0	18	0
a 	 1	2	0	14	0
a 	 2	1	0	47	0
a 	 2	5	0	23	0
a 	 6	9	0	5	0
a 	 9	10	0	15	0
a 	 7	9	0	13	0
a 	 3	10	0	41	0
a 	 9	4	0	44	0
a 	 2	3	0	17	0
a 	 7	6	0	39	0
a 	 9	8	0	39	0
a 	 5	6	0	46	0
a 	 3	1	0	1	0
